(benchmark random_random70_smt
:extrafuns ((x0 BitVec[24]))
:extrafuns ((x1 BitVec[24]))
:extrafuns ((x2 BitVec[24]))
:extrafuns ((x3 BitVec[24]))
:extrafuns ((x4 BitVec[24]))
:extrafuns ((x5 BitVec[24]))
:extrafuns ((x6 BitVec[24]))
:extrafuns ((x7 BitVec[24]))
:extrafuns ((x8 BitVec[24]))
:extrafuns ((x9 BitVec[24]))
:extrafuns ((x10 BitVec[24]))
:extrafuns ((x11 BitVec[24]))
:extrafuns ((x12 BitVec[24]))
:extrafuns ((x13 BitVec[24]))
:extrafuns ((x14 BitVec[24]))
:extrafuns ((x15 BitVec[24]))
:extrafuns ((x16 BitVec[24]))
:extrafuns ((x17 BitVec[24]))
:extrafuns ((x18 BitVec[24]))
:extrafuns ((x19 BitVec[24]))


:formula (and (not (= (bvadd (bvmul bv1042083[24] x3) 
                        (bvadd (bvmul bv574799[24] x5) 
                        (bvadd (bvmul bv6394602[24] x6) 
                        (bvadd (bvmul bv13639997[24] x8) 
                        (bvadd (bvmul bv1584198[24] x9) 
                        (bvadd (bvmul bv14210803[24] x11) 
                        (bvadd (bvmul bv16023358[24] x12) 
                        (bvadd (bvmul bv6890716[24] x15) 
                        (bvadd (bvmul bv1258965[24] x16) (bvmul bv15888250[24] x17))))))))))
	              bv11264968[24]))
         (and (not (= (bvadd (bvmul bv11645278[24] x1) 
                        (bvadd (bvmul bv12549940[24] x3) 
                        (bvadd (bvmul bv11031449[24] x4) 
                        (bvadd (bvmul bv14843624[24] x7) 
                        (bvadd (bvmul bv16427823[24] x9) 
                        (bvadd (bvmul bv6611388[24] x12) 
                        (bvadd (bvmul bv726495[24] x15) (bvmul bv6882468[24] x16))))))))
	              bv4031727[24]))
         (and (not (= (bvadd (bvmul bv12126535[24] x3) 
                        (bvadd (bvmul bv10080043[24] x4) 
                        (bvadd (bvmul bv13174961[24] x8) 
                        (bvadd (bvmul bv15367980[24] x10) 
                        (bvadd (bvmul bv10792624[24] x11) 
                        (bvadd (bvmul bv9206849[24] x15) 
                        (bvadd (bvmul bv8240022[24] x16) 
                        (bvadd (bvmul bv6075252[24] x17) 
                        (bvadd (bvmul bv11918804[24] x18) (bvmul bv4338779[24] x19))))))))))
	              bv15950532[24]))
         (and (not (= (bvadd (bvmul bv11634778[24] x5) 
                        (bvadd (bvmul bv4367008[24] x8) 
                        (bvadd (bvmul bv15509023[24] x10) 
                        (bvadd (bvmul bv9524432[24] x12) 
                        (bvadd (bvmul bv624039[24] x14) 
                        (bvadd (bvmul bv9614684[24] x17) (bvmul bv1841363[24] x18)))))))
	              bv9316153[24]))
         (and (not (= (bvadd (bvmul bv12298739[24] x0) 
                        (bvadd (bvmul bv15495219[24] x1) 
                        (bvadd (bvmul bv272739[24] x3) 
                        (bvadd (bvmul bv11907518[24] x5) 
                        (bvadd (bvmul bv1259969[24] x6) 
                        (bvadd (bvmul bv12946543[24] x7) 
                        (bvadd (bvmul bv11678351[24] x9) 
                        (bvadd (bvmul bv16051189[24] x13) (bvmul bv3515193[24] x15)))))))))
	              bv12557019[24]))
         (and (not (= (bvadd (bvmul bv16220962[24] x0) 
                        (bvadd (bvmul bv8420106[24] x3) 
                        (bvadd (bvmul bv15211706[24] x4) 
                        (bvadd (bvmul bv11713790[24] x5) 
                        (bvadd (bvmul bv733343[24] x6) 
                        (bvadd (bvmul bv4664154[24] x7) 
                        (bvadd (bvmul bv16421156[24] x8) 
                        (bvadd (bvmul bv8581023[24] x9) 
                        (bvadd (bvmul bv14254455[24] x12) 
                        (bvadd (bvmul bv5843248[24] x15) 
                        (bvadd (bvmul bv6755790[24] x17) (bvmul bv207270[24] x19))))))))))))
	              bv4195539[24]))
         (and (not (= (bvadd (bvmul bv1614506[24] x3) 
                        (bvadd (bvmul bv11133792[24] x6) 
                        (bvadd (bvmul bv15797946[24] x8) 
                        (bvadd (bvmul bv9168784[24] x9) 
                        (bvadd (bvmul bv7705978[24] x10) 
                        (bvadd (bvmul bv889286[24] x11) 
                        (bvadd (bvmul bv3217340[24] x13) 
                        (bvadd (bvmul bv7309052[24] x16) 
                        (bvadd (bvmul bv12060844[24] x18) (bvmul bv16023648[24] x19))))))))))
	              bv16256383[24]))
         (and (not (= (bvadd (bvmul bv1394654[24] x0) 
                        (bvadd (bvmul bv13762035[24] x6) 
                        (bvadd (bvmul bv12782767[24] x8) 
                        (bvadd (bvmul bv13660636[24] x11) 
                        (bvadd (bvmul bv11507259[24] x12) 
                        (bvadd (bvmul bv6033123[24] x15) 
                        (bvadd (bvmul bv7007974[24] x16) 
                        (bvadd (bvmul bv11260322[24] x17) (bvmul bv4128646[24] x19)))))))))
	              bv5293572[24]))
         (and (not (= (bvadd (bvmul bv6688226[24] x1) 
                        (bvadd (bvmul bv1030474[24] x2) 
                        (bvadd (bvmul bv12569676[24] x3) 
                        (bvadd (bvmul bv9554496[24] x5) 
                        (bvadd (bvmul bv1565503[24] x6) 
                        (bvadd (bvmul bv15305673[24] x10) 
                        (bvadd (bvmul bv16124452[24] x12) 
                        (bvadd (bvmul bv8855452[24] x13) 
                        (bvadd (bvmul bv1945321[24] x16) 
                        (bvadd (bvmul bv5133350[24] x17) 
                        (bvadd (bvmul bv2096238[24] x18) (bvmul bv1898886[24] x19))))))))))))
	              bv8233[24]))
         (and (not (= (bvadd (bvmul bv1038708[24] x1) 
                        (bvadd (bvmul bv7632781[24] x2) (bvmul bv1887716[24] x14)))
	              bv9213398[24]))
         (and (not (= (bvadd (bvmul bv3007310[24] x1) 
                        (bvadd (bvmul bv4754582[24] x7) 
                        (bvadd (bvmul bv7602083[24] x8) 
                        (bvadd (bvmul bv2338276[24] x9) 
                        (bvadd (bvmul bv6419520[24] x11) 
                        (bvadd (bvmul bv1032972[24] x12) 
                        (bvadd (bvmul bv2575962[24] x13) (bvmul bv12729245[24] x19))))))))
	              bv8472161[24]))
         (and (not (= (bvadd (bvmul bv13677964[24] x2) 
                        (bvadd (bvmul bv3127244[24] x4) 
                        (bvadd (bvmul bv729864[24] x5) 
                        (bvadd (bvmul bv13048237[24] x6) 
                        (bvadd (bvmul bv3873106[24] x8) 
                        (bvadd (bvmul bv11885253[24] x10) 
                        (bvadd (bvmul bv1494792[24] x11) 
                        (bvadd (bvmul bv14969556[24] x12) 
                        (bvadd (bvmul bv11666259[24] x13) (bvmul bv7226960[24] x16))))))))))
	              bv16230039[24]))
         (and (not (= (bvadd (bvmul bv8344420[24] x0) 
                        (bvadd (bvmul bv5403663[24] x1) 
                        (bvadd (bvmul bv6550379[24] x2) 
                        (bvadd (bvmul bv12818880[24] x3) 
                        (bvadd (bvmul bv12764691[24] x6) 
                        (bvadd (bvmul bv12963010[24] x7) 
                        (bvadd (bvmul bv6034847[24] x8) 
                        (bvadd (bvmul bv7529639[24] x10) 
                        (bvadd (bvmul bv10020611[24] x14) 
                        (bvadd (bvmul bv9017167[24] x15) 
                        (bvadd (bvmul bv16418903[24] x17) (bvmul bv8144601[24] x19))))))))))))
	              bv11993768[24]))
         (and (not (= (bvadd (bvmul bv13548264[24] x0) 
                        (bvadd (bvmul bv15239923[24] x1) 
                        (bvadd (bvmul bv14633536[24] x9) 
                        (bvadd (bvmul bv4729041[24] x13) 
                        (bvadd (bvmul bv3507094[24] x14) 
                        (bvadd (bvmul bv12226762[24] x16) 
                        (bvadd (bvmul bv9887370[24] x17) 
                        (bvadd (bvmul bv8661072[24] x18) (bvmul bv11080247[24] x19)))))))))
	              bv28459[24]))
         (and (not (= (bvadd (bvmul bv2992577[24] x0) 
                        (bvadd (bvmul bv3709770[24] x1) 
                        (bvadd (bvmul bv7198238[24] x4) 
                        (bvadd (bvmul bv11573217[24] x5) 
                        (bvadd (bvmul bv9778470[24] x6) 
                        (bvadd (bvmul bv12191991[24] x9) 
                        (bvadd (bvmul bv14459955[24] x10) 
                        (bvadd (bvmul bv1189835[24] x12) 
                        (bvadd (bvmul bv9165420[24] x15) 
                        (bvadd (bvmul bv8566475[24] x16) (bvmul bv2869508[24] x18)))))))))))
	              bv5362917[24]))
         (and (not (= (bvadd (bvmul bv9072688[24] x1) 
                        (bvadd (bvmul bv3780623[24] x3) 
                        (bvadd (bvmul bv8827500[24] x4) 
                        (bvadd (bvmul bv6667060[24] x5) 
                        (bvadd (bvmul bv1794541[24] x8) 
                        (bvadd (bvmul bv16254497[24] x10) 
                        (bvadd (bvmul bv667118[24] x12) 
                        (bvadd (bvmul bv14083715[24] x14) 
                        (bvadd (bvmul bv15291723[24] x15) 
                        (bvadd (bvmul bv11901368[24] x17) (bvmul bv13420775[24] x18)))))))))))
	              bv14604569[24]))
         (and (not (= (bvadd (bvmul bv9559760[24] x0) 
                        (bvadd (bvmul bv13340383[24] x2) 
                        (bvadd (bvmul bv9550180[24] x5) (bvmul bv7094718[24] x14))))
	              bv10274195[24]))
         (and (not (= (bvadd (bvmul bv1831044[24] x0) 
                        (bvadd (bvmul bv2318115[24] x2) 
                        (bvadd (bvmul bv5211544[24] x5) 
                        (bvadd (bvmul bv8094664[24] x7) 
                        (bvadd (bvmul bv5144338[24] x11) 
                        (bvadd (bvmul bv8546322[24] x13) 
                        (bvadd (bvmul bv669863[24] x16) 
                        (bvadd (bvmul bv4666016[24] x17) (bvmul bv16615532[24] x18)))))))))
	              bv15569135[24]))
         (and (not (= (bvadd (bvmul bv4290174[24] x0) 
                        (bvadd (bvmul bv15305940[24] x2) 
                        (bvadd (bvmul bv4065299[24] x4) 
                        (bvadd (bvmul bv853126[24] x5) 
                        (bvadd (bvmul bv7464508[24] x8) 
                        (bvadd (bvmul bv9815419[24] x9) 
                        (bvadd (bvmul bv15207961[24] x10) 
                        (bvadd (bvmul bv6977068[24] x12) 
                        (bvadd (bvmul bv15232085[24] x16) 
                        (bvadd (bvmul bv804806[24] x17) 
                        (bvadd (bvmul bv15491662[24] x18) (bvmul bv8405701[24] x19))))))))))))
	              bv3004621[24]))
         (and (not (= (bvadd (bvmul bv5598646[24] x4) 
                        (bvadd (bvmul bv7685296[24] x7) 
                        (bvadd (bvmul bv387334[24] x8) 
                        (bvadd (bvmul bv16179666[24] x11) 
                        (bvadd (bvmul bv6379520[24] x13) 
                        (bvadd (bvmul bv509469[24] x14) 
                        (bvadd (bvmul bv2584488[24] x15) 
                        (bvadd (bvmul bv2529245[24] x16) (bvmul bv1243692[24] x18)))))))))
	              bv5663230[24]))
         (and (not (= (bvadd (bvmul bv5781661[24] x2) 
                        (bvadd (bvmul bv11380308[24] x4) 
                        (bvadd (bvmul bv4303134[24] x6) 
                        (bvadd (bvmul bv2386661[24] x7) 
                        (bvadd (bvmul bv4847828[24] x9) 
                        (bvadd (bvmul bv7439844[24] x11) (bvmul bv3889045[24] x16)))))))
	              bv15284239[24]))
         (and (not (= (bvadd (bvmul bv4170254[24] x1) 
                        (bvadd (bvmul bv13813950[24] x3) 
                        (bvadd (bvmul bv3059343[24] x4) 
                        (bvadd (bvmul bv16043390[24] x7) 
                        (bvadd (bvmul bv9105414[24] x8) 
                        (bvadd (bvmul bv8554194[24] x10) 
                        (bvadd (bvmul bv5645588[24] x14) 
                        (bvadd (bvmul bv15245066[24] x15) 
                        (bvadd (bvmul bv2356897[24] x17) 
                        (bvadd (bvmul bv13092461[24] x18) (bvmul bv7687262[24] x19)))))))))))
	              bv15828917[24]))
         (and (not (= (bvadd (bvmul bv6036473[24] x1) 
                        (bvadd (bvmul bv8894252[24] x2) 
                        (bvadd (bvmul bv9395218[24] x5) 
                        (bvadd (bvmul bv14462904[24] x6) 
                        (bvadd (bvmul bv3876580[24] x9) 
                        (bvadd (bvmul bv5839191[24] x10) 
                        (bvadd (bvmul bv872496[24] x14) 
                        (bvadd (bvmul bv3827235[24] x17) 
                        (bvadd (bvmul bv8787440[24] x18) (bvmul bv4635885[24] x19))))))))))
	              bv7839142[24]))
         (and (not (= (bvadd (bvmul bv16493402[24] x0) 
                        (bvadd (bvmul bv16400106[24] x1) 
                        (bvadd (bvmul bv15901307[24] x2) 
                        (bvadd (bvmul bv16000408[24] x5) 
                        (bvadd (bvmul bv5054319[24] x7) 
                        (bvadd (bvmul bv2662426[24] x9) 
                        (bvadd (bvmul bv7655824[24] x10) 
                        (bvadd (bvmul bv4270681[24] x12) 
                        (bvadd (bvmul bv14366184[24] x13) 
                        (bvadd (bvmul bv4243435[24] x14) 
                        (bvadd (bvmul bv14878679[24] x17) 
                        (bvadd (bvmul bv4092803[24] x18) (bvmul bv10116977[24] x19)))))))))))))
	              bv1191204[24]))
         (and (not (= (bvadd (bvmul bv1950202[24] x0) 
                        (bvadd (bvmul bv8834607[24] x3) 
                        (bvadd (bvmul bv13695799[24] x4) 
                        (bvadd (bvmul bv12432532[24] x10) 
                        (bvadd (bvmul bv6984746[24] x11) 
                        (bvadd (bvmul bv6416621[24] x12) 
                        (bvadd (bvmul bv10660057[24] x14) 
                        (bvadd (bvmul bv6913717[24] x16) (bvmul bv2000495[24] x19)))))))))
	              bv1470520[24]))
         (and (not (= (bvadd (bvmul bv16309711[24] x0) 
                        (bvadd (bvmul bv16339193[24] x2) 
                        (bvadd (bvmul bv4570415[24] x3) 
                        (bvadd (bvmul bv9319464[24] x4) 
                        (bvadd (bvmul bv3121647[24] x5) 
                        (bvadd (bvmul bv14214491[24] x6) 
                        (bvadd (bvmul bv4381117[24] x7) 
                        (bvadd (bvmul bv7959233[24] x8) 
                        (bvadd (bvmul bv9795808[24] x9) 
                        (bvadd (bvmul bv15939580[24] x10) 
                        (bvadd (bvmul bv15172415[24] x14) 
                        (bvadd (bvmul bv7621600[24] x15) 
                        (bvadd (bvmul bv11244168[24] x16) 
                        (bvadd (bvmul bv4822231[24] x17) (bvmul bv12512843[24] x18)))))))))))))))
	              bv10338643[24]))
         (and (not (= (bvadd (bvmul bv678757[24] x2) 
                        (bvadd (bvmul bv12274944[24] x3) 
                        (bvadd (bvmul bv12003513[24] x4) 
                        (bvadd (bvmul bv5096108[24] x6) 
                        (bvadd (bvmul bv9940741[24] x7) 
                        (bvadd (bvmul bv11146671[24] x8) 
                        (bvadd (bvmul bv16652790[24] x9) 
                        (bvadd (bvmul bv16143632[24] x11) 
                        (bvadd (bvmul bv1188805[24] x15) 
                        (bvadd (bvmul bv15247305[24] x16) 
                        (bvadd (bvmul bv11815767[24] x17) (bvmul bv5526900[24] x18))))))))))))
	              bv4156582[24]))
         (and (not (= (bvadd (bvmul bv3853818[24] x0) 
                        (bvadd (bvmul bv14824793[24] x2) 
                        (bvadd (bvmul bv15766723[24] x3) 
                        (bvadd (bvmul bv2268011[24] x4) 
                        (bvadd (bvmul bv6563197[24] x5) 
                        (bvadd (bvmul bv258288[24] x8) 
                        (bvadd (bvmul bv13144483[24] x9) 
                        (bvadd (bvmul bv10558502[24] x10) (bvmul bv954198[24] x17)))))))))
	              bv4129259[24]))
         (and (not (= (bvadd (bvmul bv6030656[24] x4) 
                        (bvadd (bvmul bv2653112[24] x6) 
                        (bvadd (bvmul bv7629395[24] x9) 
                        (bvadd (bvmul bv8105400[24] x10) 
                        (bvadd (bvmul bv5476403[24] x17) (bvmul bv3263542[24] x18))))))
	              bv11305897[24]))
         (and (not (= (bvadd (bvmul bv16298979[24] x1) 
                        (bvadd (bvmul bv2417829[24] x3) 
                        (bvadd (bvmul bv6748153[24] x4) 
                        (bvadd (bvmul bv5583519[24] x5) 
                        (bvadd (bvmul bv10778104[24] x6) 
                        (bvadd (bvmul bv16555533[24] x11) 
                        (bvadd (bvmul bv936155[24] x12) 
                        (bvadd (bvmul bv8448543[24] x14) 
                        (bvadd (bvmul bv4038369[24] x15) 
                        (bvadd (bvmul bv15878084[24] x17) 
                        (bvadd (bvmul bv5389157[24] x18) (bvmul bv13277724[24] x19))))))))))))
	              bv15246594[24]))
         (and (not (= (bvadd (bvmul bv4847509[24] x0) 
                        (bvadd (bvmul bv12346360[24] x1) 
                        (bvadd (bvmul bv9983892[24] x4) 
                        (bvadd (bvmul bv5061854[24] x5) 
                        (bvadd (bvmul bv6664887[24] x10) 
                        (bvadd (bvmul bv12066662[24] x11) 
                        (bvadd (bvmul bv7376744[24] x12) 
                        (bvadd (bvmul bv9534432[24] x15) (bvmul bv1817199[24] x17)))))))))
	              bv15094924[24]))
         (and (not (= (bvadd (bvmul bv3165218[24] x1) 
                        (bvadd (bvmul bv7565591[24] x3) 
                        (bvadd (bvmul bv2215577[24] x8) 
                        (bvadd (bvmul bv15875386[24] x9) 
                        (bvadd (bvmul bv15189690[24] x13) 
                        (bvadd (bvmul bv472206[24] x17) 
                        (bvadd (bvmul bv11537827[24] x18) (bvmul bv13502099[24] x19))))))))
	              bv3077932[24]))
         (and (not (= (bvadd (bvmul bv11819808[24] x0) 
                        (bvadd (bvmul bv12430579[24] x1) 
                        (bvadd (bvmul bv14062097[24] x2) 
                        (bvadd (bvmul bv6545671[24] x6) 
                        (bvadd (bvmul bv1435143[24] x7) 
                        (bvadd (bvmul bv5098700[24] x8) 
                        (bvadd (bvmul bv8221727[24] x10) 
                        (bvadd (bvmul bv6634203[24] x12) 
                        (bvadd (bvmul bv610516[24] x13) 
                        (bvadd (bvmul bv1046629[24] x14) 
                        (bvadd (bvmul bv12070914[24] x17) (bvmul bv10427426[24] x19))))))))))))
	              bv12237046[24]))
         (and (not (= (bvadd (bvmul bv6080791[24] x0) 
                        (bvadd (bvmul bv6034688[24] x1) 
                        (bvadd (bvmul bv16218261[24] x2) 
                        (bvadd (bvmul bv3823694[24] x3) 
                        (bvadd (bvmul bv13103621[24] x7) 
                        (bvadd (bvmul bv4548134[24] x9) 
                        (bvadd (bvmul bv5842823[24] x10) (bvmul bv4525492[24] x11))))))))
	              bv264537[24]))
         (and (not (= (bvadd (bvmul bv2759217[24] x0) 
                        (bvadd (bvmul bv2560766[24] x1) 
                        (bvadd (bvmul bv15049031[24] x2) 
                        (bvadd (bvmul bv12645123[24] x3) 
                        (bvadd (bvmul bv984615[24] x4) 
                        (bvadd (bvmul bv14279099[24] x8) 
                        (bvadd (bvmul bv10891993[24] x9) 
                        (bvadd (bvmul bv13232355[24] x12) 
                        (bvadd (bvmul bv6410942[24] x13) 
                        (bvadd (bvmul bv667319[24] x14) 
                        (bvadd (bvmul bv6527080[24] x15) 
                        (bvadd (bvmul bv13826466[24] x17) (bvmul bv16585684[24] x19)))))))))))))
	              bv11325563[24]))
         (and (not (= (bvadd (bvmul bv13012546[24] x0) 
                        (bvadd (bvmul bv12978429[24] x1) 
                        (bvadd (bvmul bv2767936[24] x2) 
                        (bvadd (bvmul bv10735081[24] x3) 
                        (bvadd (bvmul bv1445298[24] x6) 
                        (bvadd (bvmul bv4675238[24] x7) 
                        (bvadd (bvmul bv1129794[24] x11) (bvmul bv16372606[24] x12))))))))
	              bv4692653[24]))
         (and (bvule      (bvadd (bvmul bv10300746[24] x3) 
                        (bvadd (bvmul bv8095979[24] x4) 
                        (bvadd (bvmul bv13897206[24] x5) 
                        (bvadd (bvmul bv1680180[24] x9) 
                        (bvadd (bvmul bv512329[24] x10) 
                        (bvadd (bvmul bv4721345[24] x16) (bvmul bv12042254[24] x19)))))))
	              bv15838436[24])
         (and (bvule      (bvadd (bvmul bv1420057[24] x0) 
                        (bvadd (bvmul bv12424171[24] x5) 
                        (bvadd (bvmul bv4540977[24] x8) 
                        (bvadd (bvmul bv8950522[24] x9) 
                        (bvadd (bvmul bv4327205[24] x12) 
                        (bvadd (bvmul bv9598753[24] x14) 
                        (bvadd (bvmul bv4154938[24] x15) 
                        (bvadd (bvmul bv10490201[24] x16) (bvmul bv7421338[24] x17)))))))))
	              bv2686378[24])
         (and (bvule      (bvadd (bvmul bv16610993[24] x6) 
                        (bvadd (bvmul bv6824964[24] x10) 
                        (bvadd (bvmul bv5591424[24] x13) 
                        (bvadd (bvmul bv16242422[24] x14) 
                        (bvadd (bvmul bv12425452[24] x15) 
                        (bvadd (bvmul bv5825966[24] x16) 
                        (bvadd (bvmul bv8286842[24] x17) 
                        (bvadd (bvmul bv8679459[24] x18) (bvmul bv877249[24] x19)))))))))
	              bv11622346[24])
              (bvule      (bvadd (bvmul bv5723780[24] x2) 
                        (bvadd (bvmul bv11953641[24] x4) 
                        (bvadd (bvmul bv13830459[24] x6) 
                        (bvadd (bvmul bv2794119[24] x10) 
                        (bvadd (bvmul bv4540117[24] x11) (bvmul bv8959012[24] x17))))))
	              bv8497965[24])
	 )))))))))))))))))))))))))))))))))))))))

)
